c graph colorability of graph:
c random_regular_graph(5, 98).
c
c Generated with `cnfgen`
c (C) 2012-2016 Massimo Lauria <lauria.massimo@gmail.com>
c https://massimolauria.github.io/cnfgen
c
p cnf 294 1127
1 2 3 0
-1 -2 0
-1 -3 0
-2 -3 0
4 5 6 0
-4 -5 0
-4 -6 0
-5 -6 0
7 8 9 0
-7 -8 0
-7 -9 0
-8 -9 0
10 11 12 0
-10 -11 0
-10 -12 0
-11 -12 0
13 14 15 0
-13 -14 0
-13 -15 0
-14 -15 0
16 17 18 0
-16 -17 0
-16 -18 0
-17 -18 0
19 20 21 0
-19 -20 0
-19 -21 0
-20 -21 0
22 23 24 0
-22 -23 0
-22 -24 0
-23 -24 0
25 26 27 0
-25 -26 0
-25 -27 0
-26 -27 0
28 29 30 0
-28 -29 0
-28 -30 0
-29 -30 0
31 32 33 0
-31 -32 0
-31 -33 0
-32 -33 0
34 35 36 0
-34 -35 0
-34 -36 0
-35 -36 0
37 38 39 0
-37 -38 0
-37 -39 0
-38 -39 0
40 41 42 0
-40 -41 0
-40 -42 0
-41 -42 0
43 44 45 0
-43 -44 0
-43 -45 0
-44 -45 0
46 47 48 0
-46 -47 0
-46 -48 0
-47 -48 0
49 50 51 0
-49 -50 0
-49 -51 0
-50 -51 0
52 53 54 0
-52 -53 0
-52 -54 0
-53 -54 0
55 56 57 0
-55 -56 0
-55 -57 0
-56 -57 0
58 59 60 0
-58 -59 0
-58 -60 0
-59 -60 0
61 62 63 0
-61 -62 0
-61 -63 0
-62 -63 0
64 65 66 0
-64 -65 0
-64 -66 0
-65 -66 0
67 68 69 0
-67 -68 0
-67 -69 0
-68 -69 0
70 71 72 0
-70 -71 0
-70 -72 0
-71 -72 0
73 74 75 0
-73 -74 0
-73 -75 0
-74 -75 0
76 77 78 0
-76 -77 0
-76 -78 0
-77 -78 0
79 80 81 0
-79 -80 0
-79 -81 0
-80 -81 0
82 83 84 0
-82 -83 0
-82 -84 0
-83 -84 0
85 86 87 0
-85 -86 0
-85 -87 0
-86 -87 0
88 89 90 0
-88 -89 0
-88 -90 0
-89 -90 0
91 92 93 0
-91 -92 0
-91 -93 0
-92 -93 0
94 95 96 0
-94 -95 0
-94 -96 0
-95 -96 0
97 98 99 0
-97 -98 0
-97 -99 0
-98 -99 0
100 101 102 0
-100 -101 0
-100 -102 0
-101 -102 0
103 104 105 0
-103 -104 0
-103 -105 0
-104 -105 0
106 107 108 0
-106 -107 0
-106 -108 0
-107 -108 0
109 110 111 0
-109 -110 0
-109 -111 0
-110 -111 0
112 113 114 0
-112 -113 0
-112 -114 0
-113 -114 0
115 116 117 0
-115 -116 0
-115 -117 0
-116 -117 0
118 119 120 0
-118 -119 0
-118 -120 0
-119 -120 0
121 122 123 0
-121 -122 0
-121 -123 0
-122 -123 0
124 125 126 0
-124 -125 0
-124 -126 0
-125 -126 0
127 128 129 0
-127 -128 0
-127 -129 0
-128 -129 0
130 131 132 0
-130 -131 0
-130 -132 0
-131 -132 0
133 134 135 0
-133 -134 0
-133 -135 0
-134 -135 0
136 137 138 0
-136 -137 0
-136 -138 0
-137 -138 0
139 140 141 0
-139 -140 0
-139 -141 0
-140 -141 0
142 143 144 0
-142 -143 0
-142 -144 0
-143 -144 0
145 146 147 0
-145 -146 0
-145 -147 0
-146 -147 0
148 149 150 0
-148 -149 0
-148 -150 0
-149 -150 0
151 152 153 0
-151 -152 0
-151 -153 0
-152 -153 0
154 155 156 0
-154 -155 0
-154 -156 0
-155 -156 0
157 158 159 0
-157 -158 0
-157 -159 0
-158 -159 0
160 161 162 0
-160 -161 0
-160 -162 0
-161 -162 0
163 164 165 0
-163 -164 0
-163 -165 0
-164 -165 0
166 167 168 0
-166 -167 0
-166 -168 0
-167 -168 0
169 170 171 0
-169 -170 0
-169 -171 0
-170 -171 0
172 173 174 0
-172 -173 0
-172 -174 0
-173 -174 0
175 176 177 0
-175 -176 0
-175 -177 0
-176 -177 0
178 179 180 0
-178 -179 0
-178 -180 0
-179 -180 0
181 182 183 0
-181 -182 0
-181 -183 0
-182 -183 0
184 185 186 0
-184 -185 0
-184 -186 0
-185 -186 0
187 188 189 0
-187 -188 0
-187 -189 0
-188 -189 0
190 191 192 0
-190 -191 0
-190 -192 0
-191 -192 0
193 194 195 0
-193 -194 0
-193 -195 0
-194 -195 0
196 197 198 0
-196 -197 0
-196 -198 0
-197 -198 0
199 200 201 0
-199 -200 0
-199 -201 0
-200 -201 0
202 203 204 0
-202 -203 0
-202 -204 0
-203 -204 0
205 206 207 0
-205 -206 0
-205 -207 0
-206 -207 0
208 209 210 0
-208 -209 0
-208 -210 0
-209 -210 0
211 212 213 0
-211 -212 0
-211 -213 0
-212 -213 0
214 215 216 0
-214 -215 0
-214 -216 0
-215 -216 0
217 218 219 0
-217 -218 0
-217 -219 0
-218 -219 0
220 221 222 0
-220 -221 0
-220 -222 0
-221 -222 0
223 224 225 0
-223 -224 0
-223 -225 0
-224 -225 0
226 227 228 0
-226 -227 0
-226 -228 0
-227 -228 0
229 230 231 0
-229 -230 0
-229 -231 0
-230 -231 0
232 233 234 0
-232 -233 0
-232 -234 0
-233 -234 0
235 236 237 0
-235 -236 0
-235 -237 0
-236 -237 0
238 239 240 0
-238 -239 0
-238 -240 0
-239 -240 0
241 242 243 0
-241 -242 0
-241 -243 0
-242 -243 0
244 245 246 0
-244 -245 0
-244 -246 0
-245 -246 0
247 248 249 0
-247 -248 0
-247 -249 0
-248 -249 0
250 251 252 0
-250 -251 0
-250 -252 0
-251 -252 0
253 254 255 0
-253 -254 0
-253 -255 0
-254 -255 0
256 257 258 0
-256 -257 0
-256 -258 0
-257 -258 0
259 260 261 0
-259 -260 0
-259 -261 0
-260 -261 0
262 263 264 0
-262 -263 0
-262 -264 0
-263 -264 0
265 266 267 0
-265 -266 0
-265 -267 0
-266 -267 0
268 269 270 0
-268 -269 0
-268 -270 0
-269 -270 0
271 272 273 0
-271 -272 0
-271 -273 0
-272 -273 0
274 275 276 0
-274 -275 0
-274 -276 0
-275 -276 0
277 278 279 0
-277 -278 0
-277 -279 0
-278 -279 0
280 281 282 0
-280 -281 0
-280 -282 0
-281 -282 0
283 284 285 0
-283 -284 0
-283 -285 0
-284 -285 0
286 287 288 0
-286 -287 0
-286 -288 0
-287 -288 0
289 290 291 0
-289 -290 0
-289 -291 0
-290 -291 0
292 293 294 0
-292 -293 0
-292 -294 0
-293 -294 0
-1 -49 0
-2 -50 0
-3 -51 0
-1 -61 0
-2 -62 0
-3 -63 0
-1 -106 0
-2 -107 0
-3 -108 0
-1 -148 0
-2 -149 0
-3 -150 0
-1 -190 0
-2 -191 0
-3 -192 0
-4 -115 0
-5 -116 0
-6 -117 0
-4 -136 0
-5 -137 0
-6 -138 0
-4 -157 0
-5 -158 0
-6 -159 0
-4 -202 0
-5 -203 0
-6 -204 0
-4 -205 0
-5 -206 0
-6 -207 0
-7 -100 0
-8 -101 0
-9 -102 0
-7 -169 0
-8 -170 0
-9 -171 0
-7 -229 0
-8 -230 0
-9 -231 0
-7 -235 0
-8 -236 0
-9 -237 0
-7 -292 0
-8 -293 0
-9 -294 0
-10 -64 0
-11 -65 0
-12 -66 0
-10 -70 0
-11 -71 0
-12 -72 0
-10 -73 0
-11 -74 0
-12 -75 0
-10 -160 0
-11 -161 0
-12 -162 0
-10 -280 0
-11 -281 0
-12 -282 0
-13 -25 0
-14 -26 0
-15 -27 0
-13 -46 0
-14 -47 0
-15 -48 0
-13 -91 0
-14 -92 0
-15 -93 0
-13 -157 0
-14 -158 0
-15 -159 0
-13 -190 0
-14 -191 0
-15 -192 0
-16 -43 0
-17 -44 0
-18 -45 0
-16 -94 0
-17 -95 0
-18 -96 0
-16 -109 0
-17 -110 0
-18 -111 0
-16 -178 0
-17 -179 0
-18 -180 0
-16 -190 0
-17 -191 0
-18 -192 0
-19 -40 0
-20 -41 0
-21 -42 0
-19 -241 0
-20 -242 0
-21 -243 0
-19 -253 0
-20 -254 0
-21 -255 0
-19 -280 0
-20 -281 0
-21 -282 0
-19 -286 0
-20 -287 0
-21 -288 0
-22 -121 0
-23 -122 0
-24 -123 0
-22 -175 0
-23 -176 0
-24 -177 0
-22 -259 0
-23 -260 0
-24 -261 0
-22 -265 0
-23 -266 0
-24 -267 0
-22 -292 0
-23 -293 0
-24 -294 0
-25 -76 0
-26 -77 0
-27 -78 0
-25 -97 0
-26 -98 0
-27 -99 0
-25 -145 0
-26 -146 0
-27 -147 0
-25 -202 0
-26 -203 0
-27 -204 0
-28 -88 0
-29 -89 0
-30 -90 0
-28 -175 0
-29 -176 0
-30 -177 0
-28 -217 0
-29 -218 0
-30 -219 0
-28 -241 0
-29 -242 0
-30 -243 0
-28 -256 0
-29 -257 0
-30 -258 0
-31 -67 0
-32 -68 0
-33 -69 0
-31 -163 0
-32 -164 0
-33 -165 0
-31 -175 0
-32 -176 0
-33 -177 0
-31 -199 0
-32 -200 0
-33 -201 0
-31 -247 0
-32 -248 0
-33 -249 0
-34 -88 0
-35 -89 0
-36 -90 0
-34 -100 0
-35 -101 0
-36 -102 0
-34 -205 0
-35 -206 0
-36 -207 0
-34 -262 0
-35 -263 0
-36 -264 0
-34 -286 0
-35 -287 0
-36 -288 0
-37 -163 0
-38 -164 0
-39 -165 0
-37 -187 0
-38 -188 0
-39 -189 0
-37 -235 0
-38 -236 0
-39 -237 0
-37 -247 0
-38 -248 0
-39 -249 0
-37 -268 0
-38 -269 0
-39 -270 0
-40 -91 0
-41 -92 0
-42 -93 0
-40 -127 0
-41 -128 0
-42 -129 0
-40 -211 0
-41 -212 0
-42 -213 0
-40 -289 0
-41 -290 0
-42 -291 0
-43 -58 0
-44 -59 0
-45 -60 0
-43 -61 0
-44 -62 0
-45 -63 0
-43 -172 0
-44 -173 0
-45 -174 0
-43 -202 0
-44 -203 0
-45 -204 0
-46 -52 0
-47 -53 0
-48 -54 0
-46 -211 0
-47 -212 0
-48 -213 0
-46 -217 0
-47 -218 0
-48 -219 0
-46 -283 0
-47 -284 0
-48 -285 0
-49 -109 0
-50 -110 0
-51 -111 0
-49 -115 0
-50 -116 0
-51 -117 0
-49 -142 0
-50 -143 0
-51 -144 0
-49 -292 0
-50 -293 0
-51 -294 0
-52 -121 0
-53 -122 0
-54 -123 0
-52 -145 0
-53 -146 0
-54 -147 0
-52 -154 0
-53 -155 0
-54 -156 0
-52 -274 0
-53 -275 0
-54 -276 0
-55 -112 0
-56 -113 0
-57 -114 0
-55 -160 0
-56 -161 0
-57 -162 0
-55 -220 0
-56 -221 0
-57 -222 0
-55 -244 0
-56 -245 0
-57 -246 0
-55 -286 0
-56 -287 0
-57 -288 0
-58 -88 0
-59 -89 0
-60 -90 0
-58 -112 0
-59 -113 0
-60 -114 0
-58 -142 0
-59 -143 0
-60 -144 0
-58 -271 0
-59 -272 0
-60 -273 0
-61 -106 0
-62 -107 0
-63 -108 0
-61 -124 0
-62 -125 0
-63 -126 0
-61 -199 0
-62 -200 0
-63 -201 0
-64 -94 0
-65 -95 0
-66 -96 0
-64 -124 0
-65 -125 0
-66 -126 0
-64 -130 0
-65 -131 0
-66 -132 0
-64 -157 0
-65 -158 0
-66 -159 0
-67 -109 0
-68 -110 0
-69 -111 0
-67 -166 0
-68 -167 0
-69 -168 0
-67 -184 0
-68 -185 0
-69 -186 0
-67 -262 0
-68 -263 0
-69 -264 0
-70 -154 0
-71 -155 0
-72 -156 0
-70 -205 0
-71 -206 0
-72 -207 0
-70 -265 0
-71 -266 0
-72 -267 0
-70 -268 0
-71 -269 0
-72 -270 0
-73 -79 0
-74 -80 0
-75 -81 0
-73 -181 0
-74 -182 0
-75 -183 0
-73 -226 0
-74 -227 0
-75 -228 0
-73 -283 0
-74 -284 0
-75 -285 0
-76 -85 0
-77 -86 0
-78 -87 0
-76 -139 0
-77 -140 0
-78 -141 0
-76 -220 0
-77 -221 0
-78 -222 0
-76 -265 0
-77 -266 0
-78 -267 0
-79 -109 0
-80 -110 0
-81 -111 0
-79 -157 0
-80 -158 0
-81 -159 0
-79 -163 0
-80 -164 0
-81 -165 0
-79 -181 0
-80 -182 0
-81 -183 0
-82 -127 0
-83 -128 0
-84 -129 0
-82 -133 0
-83 -134 0
-84 -135 0
-82 -214 0
-83 -215 0
-84 -216 0
-82 -280 0
-83 -281 0
-84 -282 0
-82 -283 0
-83 -284 0
-84 -285 0
-85 -118 0
-86 -119 0
-87 -120 0
-85 -148 0
-86 -149 0
-87 -150 0
-85 -181 0
-86 -182 0
-87 -183 0
-85 -226 0
-86 -227 0
-87 -228 0
-88 -127 0
-89 -128 0
-90 -129 0
-88 -238 0
-89 -239 0
-90 -240 0
-91 -103 0
-92 -104 0
-93 -105 0
-91 -130 0
-92 -131 0
-93 -132 0
-91 -232 0
-92 -233 0
-93 -234 0
-94 -151 0
-95 -152 0
-96 -153 0
-94 -166 0
-95 -167 0
-96 -168 0
-94 -289 0
-95 -290 0
-96 -291 0
-97 -115 0
-98 -116 0
-99 -117 0
-97 -178 0
-98 -179 0
-99 -180 0
-97 -274 0
-98 -275 0
-99 -276 0
-97 -283 0
-98 -284 0
-99 -285 0
-100 -145 0
-101 -146 0
-102 -147 0
-100 -187 0
-101 -188 0
-102 -189 0
-100 -232 0
-101 -233 0
-102 -234 0
-103 -121 0
-104 -122 0
-105 -123 0
-103 -178 0
-104 -179 0
-105 -180 0
-103 -223 0
-104 -224 0
-105 -225 0
-103 -259 0
-104 -260 0
-105 -261 0
-106 -112 0
-107 -113 0
-108 -114 0
-106 -184 0
-107 -185 0
-108 -186 0
-106 -235 0
-107 -236 0
-108 -237 0
-109 -166 0
-110 -167 0
-111 -168 0
-112 -241 0
-113 -242 0
-114 -243 0
-112 -268 0
-113 -269 0
-114 -270 0
-115 -205 0
-116 -206 0
-117 -207 0
-115 -244 0
-116 -245 0
-117 -246 0
-118 -136 0
-119 -137 0
-120 -138 0
-118 -169 0
-119 -170 0
-120 -171 0
-118 -211 0
-119 -212 0
-120 -213 0
-118 -247 0
-119 -248 0
-120 -249 0
-121 -172 0
-122 -173 0
-123 -174 0
-121 -256 0
-122 -257 0
-123 -258 0
-124 -187 0
-125 -188 0
-126 -189 0
-124 -208 0
-125 -209 0
-126 -210 0
-124 -250 0
-125 -251 0
-126 -252 0
-127 -166 0
-128 -167 0
-129 -168 0
-127 -202 0
-128 -203 0
-129 -204 0
-130 -223 0
-131 -224 0
-132 -225 0
-130 -226 0
-131 -227 0
-132 -228 0
-130 -277 0
-131 -278 0
-132 -279 0
-133 -232 0
-134 -233 0
-135 -234 0
-133 -235 0
-134 -236 0
-135 -237 0
-133 -259 0
-134 -260 0
-135 -261 0
-133 -271 0
-134 -272 0
-135 -273 0
-136 -139 0
-137 -140 0
-138 -141 0
-136 -184 0
-137 -185 0
-138 -186 0
-136 -271 0
-137 -272 0
-138 -273 0
-139 -190 0
-140 -191 0
-141 -192 0
-139 -250 0
-140 -251 0
-141 -252 0
-139 -277 0
-140 -278 0
-141 -279 0
-142 -193 0
-143 -194 0
-144 -195 0
-142 -262 0
-143 -263 0
-144 -264 0
-142 -265 0
-143 -266 0
-144 -267 0
-145 -193 0
-146 -194 0
-147 -195 0
-145 -238 0
-146 -239 0
-147 -240 0
-148 -151 0
-149 -152 0
-150 -153 0
-148 -226 0
-149 -227 0
-150 -228 0
-148 -274 0
-149 -275 0
-150 -276 0
-151 -211 0
-152 -212 0
-153 -213 0
-151 -250 0
-152 -251 0
-153 -252 0
-151 -268 0
-152 -269 0
-153 -270 0
-154 -187 0
-155 -188 0
-156 -189 0
-154 -247 0
-155 -248 0
-156 -249 0
-154 -265 0
-155 -266 0
-156 -267 0
-157 -193 0
-158 -194 0
-159 -195 0
-160 -184 0
-161 -185 0
-162 -186 0
-160 -256 0
-161 -257 0
-162 -258 0
-160 -274 0
-161 -275 0
-162 -276 0
-163 -196 0
-164 -197 0
-165 -198 0
-163 -271 0
-164 -272 0
-165 -273 0
-166 -283 0
-167 -284 0
-168 -285 0
-169 -208 0
-170 -209 0
-171 -210 0
-169 -256 0
-170 -257 0
-171 -258 0
-169 -277 0
-170 -278 0
-171 -279 0
-172 -193 0
-173 -194 0
-174 -195 0
-172 -244 0
-173 -245 0
-174 -246 0
-172 -277 0
-173 -278 0
-174 -279 0
-175 -190 0
-176 -191 0
-177 -192 0
-175 -202 0
-176 -203 0
-177 -204 0
-178 -229 0
-179 -230 0
-180 -231 0
-178 -259 0
-179 -260 0
-180 -261 0
-181 -253 0
-182 -254 0
-183 -255 0
-181 -271 0
-182 -272 0
-183 -273 0
-184 -229 0
-185 -230 0
-186 -231 0
-187 -205 0
-188 -206 0
-189 -207 0
-193 -289 0
-194 -290 0
-195 -291 0
-196 -247 0
-197 -248 0
-198 -249 0
-196 -277 0
-197 -278 0
-198 -279 0
-196 -280 0
-197 -281 0
-198 -282 0
-196 -292 0
-197 -293 0
-198 -294 0
-199 -208 0
-200 -209 0
-201 -210 0
-199 -238 0
-200 -239 0
-201 -240 0
-199 -268 0
-200 -269 0
-201 -270 0
-208 -220 0
-209 -221 0
-210 -222 0
-208 -286 0
-209 -287 0
-210 -288 0
-211 -235 0
-212 -236 0
-213 -237 0
-214 -229 0
-215 -230 0
-216 -231 0
-214 -241 0
-215 -242 0
-216 -243 0
-214 -259 0
-215 -260 0
-216 -261 0
-214 -289 0
-215 -290 0
-216 -291 0
-217 -223 0
-218 -224 0
-219 -225 0
-217 -229 0
-218 -230 0
-219 -231 0
-217 -253 0
-218 -254 0
-219 -255 0
-220 -256 0
-221 -257 0
-222 -258 0
-220 -280 0
-221 -281 0
-222 -282 0
-223 -250 0
-224 -251 0
-225 -252 0
-223 -262 0
-224 -263 0
-225 -264 0
-226 -253 0
-227 -254 0
-228 -255 0
-232 -241 0
-233 -242 0
-234 -243 0
-232 -262 0
-233 -263 0
-234 -264 0
-238 -244 0
-239 -245 0
-240 -246 0
-238 -292 0
-239 -293 0
-240 -294 0
-244 -289 0
-245 -290 0
-246 -291 0
-250 -274 0
-251 -275 0
-252 -276 0
-253 -286 0
-254 -287 0
-255 -288 0
